c WMC file for PBN EPFL/random_control/cavlc_distill_EPFL/random_control/cavlc_miter written by probABC
p cnf 798 1455
18 4 6 0
-18 -4 0
-18 -6 0
19 2 -10 0
-19 -2 0
-19 10 0
20 1 -10 0
-20 -1 0
-20 10 0
21 -2 20 0
-21 2 0
-21 -20 0
22 19 21 0
-22 -19 0
-22 -21 0
23 -18 -22 0
-23 18 0
-23 22 0
24 -1 10 0
-24 1 0
-24 -10 0
25 2 24 0
-25 -2 0
-25 -24 0
26 -2 10 0
-26 2 0
-26 -10 0
27 8 26 0
-27 -8 0
-27 -26 0
28 25 -27 0
-28 -25 0
-28 27 0
29 23 28 0
-29 -23 0
-29 -28 0
30 3 29 0
-30 -3 0
-30 -29 0
31 3 6 0
-31 -3 0
-31 -6 0
32 1 31 0
-32 -1 0
-32 -31 0
33 -2 -3 0
-33 2 0
-33 3 0
34 32 33 0
-34 -32 0
-34 -33 0
35 10 34 0
-35 -10 0
-35 -34 0
36 3 4 0
-36 -3 0
-36 -4 0
37 -10 36 0
-37 10 0
-37 -36 0
38 -1 -4 0
-38 1 0
-38 4 0
39 37 38 0
-39 -37 0
-39 -38 0
40 2 39 0
-40 -2 0
-40 -39 0
41 -2 4 0
-41 2 0
-41 -4 0
42 40 41 0
-42 -40 0
-42 -41 0
43 35 -42 0
-43 -35 0
-43 42 0
44 8 43 0
-44 -8 0
-44 -43 0
45 30 44 0
-45 -30 0
-45 -44 0
46 9 45 0
-46 -9 0
-46 -45 0
47 -8 -9 0
-47 8 0
-47 9 0
48 6 -47 0
-48 -6 0
-48 47 0
49 8 -10 0
-49 -8 0
-49 10 0
50 48 49 0
-50 -48 0
-50 -49 0
51 -2 50 0
-51 2 0
-51 -50 0
52 -2 8 0
-52 2 0
-52 -8 0
53 6 10 0
-53 -6 0
-53 -10 0
54 52 -53 0
-54 -52 0
-54 53 0
55 51 54 0
-55 -51 0
-55 -54 0
56 -1 3 0
-56 1 0
-56 -3 0
57 55 -56 0
-57 -55 0
-57 56 0
58 -3 10 0
-58 3 0
-58 -10 0
59 1 2 0
-59 -1 0
-59 -2 0
60 -58 -59 0
-60 58 0
-60 59 0
61 -48 -60 0
-61 48 0
-61 60 0
62 57 61 0
-62 -57 0
-62 -61 0
63 4 62 0
-63 -4 0
-63 -62 0
64 46 63 0
-64 -46 0
-64 -63 0
65 7 64 0
-65 -7 0
-65 -64 0
66 1 3 0
-66 -1 0
-66 -3 0
67 -19 -66 0
-67 19 0
-67 66 0
68 6 67 0
-68 -6 0
-68 -67 0
69 -7 68 0
-69 7 0
-69 -68 0
70 1 10 0
-70 -1 0
-70 -10 0
71 -1 -10 0
-71 1 0
-71 10 0
72 70 71 0
-72 -70 0
-72 -71 0
73 -2 72 0
-73 2 0
-73 -72 0
74 -3 -73 0
-74 3 0
-74 73 0
75 -6 -74 0
-75 6 0
-75 74 0
76 69 75 0
-76 -69 0
-76 -75 0
77 -9 76 0
-77 9 0
-77 -76 0
78 2 20 0
-78 -2 0
-78 -20 0
79 9 78 0
-79 -9 0
-79 -78 0
80 2 -3 0
-80 -2 0
-80 3 0
81 -11 80 0
-81 11 0
-81 -80 0
82 11 -80 0
-82 -11 0
-82 80 0
83 81 82 0
-83 -81 0
-83 -82 0
84 -24 83 0
-84 24 0
-84 -83 0
85 79 84 0
-85 -79 0
-85 -84 0
86 6 85 0
-86 -6 0
-86 -85 0
87 77 86 0
-87 -77 0
-87 -86 0
88 -4 87 0
-88 4 0
-88 -87 0
89 3 24 0
-89 -3 0
-89 -24 0
90 -7 89 0
-90 7 0
-90 -89 0
91 -36 -73 0
-91 36 0
-91 73 0
92 90 91 0
-92 -90 0
-92 -91 0
93 -6 92 0
-93 6 0
-93 -92 0
94 -3 -10 0
-94 3 0
-94 10 0
95 3 -26 0
-95 -3 0
-95 26 0
96 94 95 0
-96 -94 0
-96 -95 0
97 1 4 0
-97 -1 0
-97 -4 0
98 96 -97 0
-98 -96 0
-98 97 0
99 -7 -98 0
-99 7 0
-99 98 0
100 93 99 0
-100 -93 0
-100 -99 0
101 -9 100 0
-101 9 0
-101 -100 0
102 -3 4 0
-102 3 0
-102 -4 0
103 -19 -102 0
-103 19 0
-103 102 0
104 -2 9 0
-104 2 0
-104 -9 0
105 103 104 0
-105 -103 0
-105 -104 0
106 1 105 0
-106 -1 0
-106 -105 0
107 2 10 0
-107 -2 0
-107 -10 0
108 3 -7 0
-108 -3 0
-108 7 0
109 -4 108 0
-109 4 0
-109 -108 0
110 -107 109 0
-110 107 0
-110 -109 0
111 94 110 0
-111 -94 0
-111 -110 0
112 9 111 0
-112 -9 0
-112 -111 0
113 106 112 0
-113 -106 0
-113 -112 0
114 6 113 0
-114 -6 0
-114 -113 0
115 1 -36 0
-115 -1 0
-115 36 0
116 9 -107 0
-116 -9 0
-116 107 0
117 -115 -116 0
-117 115 0
-117 116 0
118 114 117 0
-118 -114 0
-118 -117 0
119 101 -118 0
-119 -101 0
-119 118 0
120 88 -119 0
-120 -88 0
-120 119 0
121 8 120 0
-121 -8 0
-121 -120 0
122 65 121 0
-122 -65 0
-122 -121 0
123 5 122 0
-123 -5 0
-123 -122 0
124 9 10 0
-124 -9 0
-124 -10 0
125 7 -124 0
-125 -7 0
-125 124 0
126 -5 -9 0
-126 5 0
-126 9 0
127 -7 -126 0
-127 7 0
-127 126 0
128 125 127 0
-128 -125 0
-128 -127 0
129 -12 128 0
-129 12 0
-129 -128 0
130 12 -128 0
-130 -12 0
-130 128 0
131 129 130 0
-131 -129 0
-131 -130 0
132 -6 -131 0
-132 6 0
-132 131 0
133 -7 10 0
-133 7 0
-133 -10 0
134 -5 -10 0
-134 5 0
-134 10 0
135 133 134 0
-135 -133 0
-135 -134 0
136 -6 -7 0
-136 6 0
-136 7 0
137 135 136 0
-137 -135 0
-137 -136 0
138 9 -137 0
-138 -9 0
-138 137 0
139 132 138 0
-139 -132 0
-139 -138 0
140 8 139 0
-140 -8 0
-140 -139 0
141 2 4 0
-141 -2 0
-141 -4 0
142 3 -141 0
-142 -3 0
-142 141 0
143 -140 -142 0
-143 140 0
-143 142 0
144 1 -143 0
-144 -1 0
-144 143 0
145 123 144 0
-145 -123 0
-145 -144 0
146 -1 -9 0
-146 1 0
-146 9 0
147 -94 -146 0
-147 94 0
-147 146 0
148 3 9 0
-148 -3 0
-148 -9 0
149 -70 -148 0
-149 70 0
-149 148 0
150 147 149 0
-150 -147 0
-150 -149 0
151 -6 150 0
-151 6 0
-151 -150 0
152 6 -9 0
-152 -6 0
-152 9 0
153 -7 -10 0
-153 7 0
-153 10 0
154 152 153 0
-154 -152 0
-154 -153 0
155 1 154 0
-155 -1 0
-155 -154 0
156 -9 -153 0
-156 9 0
-156 153 0
157 9 -53 0
-157 -9 0
-157 53 0
158 156 157 0
-158 -156 0
-158 -157 0
159 155 -158 0
-159 -155 0
-159 158 0
160 -3 159 0
-160 3 0
-160 -159 0
161 -13 160 0
-161 13 0
-161 -160 0
162 13 -160 0
-162 -13 0
-162 160 0
163 161 162 0
-163 -161 0
-163 -162 0
164 151 -163 0
-164 -151 0
-164 163 0
165 5 164 0
-165 -5 0
-165 -164 0
166 7 -10 0
-166 -7 0
-166 10 0
167 -6 9 0
-167 6 0
-167 -9 0
168 126 167 0
-168 -126 0
-168 -167 0
169 7 168 0
-169 -7 0
-169 -168 0
170 134 169 0
-170 -134 0
-170 -169 0
171 166 170 0
-171 -166 0
-171 -170 0
172 -66 -171 0
-172 66 0
-172 171 0
173 165 172 0
-173 -165 0
-173 -172 0
174 2 173 0
-174 -2 0
-174 -173 0
175 -7 -9 0
-175 7 0
-175 9 0
176 154 175 0
-176 -154 0
-176 -175 0
177 -1 -176 0
-177 1 0
-177 176 0
178 1 -6 0
-178 -1 0
-178 6 0
179 9 -10 0
-179 -9 0
-179 10 0
180 -178 -179 0
-180 178 0
-180 179 0
181 177 180 0
-181 -177 0
-181 -180 0
182 3 181 0
-182 -3 0
-182 -181 0
183 7 9 0
-183 -7 0
-183 -9 0
184 1 -7 0
-184 -1 0
-184 7 0
185 3 184 0
-185 -3 0
-185 -184 0
186 -152 185 0
-186 152 0
-186 -185 0
187 183 186 0
-187 -183 0
-187 -186 0
188 10 187 0
-188 -10 0
-188 -187 0
189 182 188 0
-189 -182 0
-189 -188 0
190 -2 189 0
-190 2 0
-190 -189 0
191 7 -9 0
-191 -7 0
-191 9 0
192 -58 -191 0
-192 58 0
-192 191 0
193 190 192 0
-193 -190 0
-193 -192 0
194 5 193 0
-194 -5 0
-194 -193 0
195 174 194 0
-195 -174 0
-195 -194 0
196 4 195 0
-196 -4 0
-196 -195 0
197 -6 -148 0
-197 6 0
-197 148 0
198 4 9 0
-198 -4 0
-198 -9 0
199 152 198 0
-199 -152 0
-199 -198 0
200 -1 -199 0
-200 1 0
-200 199 0
201 197 200 0
-201 -197 0
-201 -200 0
202 2 201 0
-202 -2 0
-202 -201 0
203 -4 -9 0
-203 4 0
-203 9 0
204 3 203 0
-204 -3 0
-204 -203 0
205 1 204 0
-205 -1 0
-205 -204 0
206 3 -9 0
-206 -3 0
-206 9 0
207 -1 -206 0
-207 1 0
-207 206 0
208 -1 6 0
-208 1 0
-208 -6 0
209 178 208 0
-209 -178 0
-209 -208 0
210 207 -209 0
-210 -207 0
-210 209 0
211 -2 210 0
-211 2 0
-211 -210 0
212 205 211 0
-212 -205 0
-212 -211 0
213 202 -212 0
-213 -202 0
-213 212 0
214 7 213 0
-214 -7 0
-214 -213 0
215 2 -7 0
-215 -2 0
-215 7 0
216 -3 215 0
-216 3 0
-216 -215 0
217 2 9 0
-217 -2 0
-217 -9 0
218 216 217 0
-218 -216 0
-218 -217 0
219 -4 -218 0
-219 4 0
-219 218 0
220 1 -9 0
-220 -1 0
-220 9 0
221 2 7 0
-221 -2 0
-221 -7 0
222 -1 -2 0
-222 1 0
-222 2 0
223 221 222 0
-223 -221 0
-223 -222 0
224 220 -223 0
-224 -220 0
-224 223 0
225 3 -224 0
-225 -3 0
-225 224 0
226 219 225 0
-226 -219 0
-226 -225 0
227 6 226 0
-227 -6 0
-227 -226 0
228 214 227 0
-228 -214 0
-228 -227 0
229 10 228 0
-229 -10 0
-229 -228 0
230 -2 -6 0
-230 2 0
-230 6 0
231 -4 9 0
-231 4 0
-231 -9 0
232 2 3 0
-232 -2 0
-232 -3 0
233 -231 -232 0
-233 231 0
-233 232 0
234 230 233 0
-234 -230 0
-234 -233 0
235 -1 234 0
-235 1 0
-235 -234 0
236 -6 36 0
-236 6 0
-236 -36 0
237 -4 -33 0
-237 4 0
-237 33 0
238 236 237 0
-238 -236 0
-238 -237 0
239 235 -238 0
-239 -235 0
-239 238 0
240 -7 239 0
-240 7 0
-240 -239 0
241 -167 -237 0
-241 167 0
-241 237 0
242 240 241 0
-242 -240 0
-242 -241 0
243 -10 242 0
-243 10 0
-243 -242 0
244 229 243 0
-244 -229 0
-244 -243 0
245 5 244 0
-245 -5 0
-245 -244 0
246 196 245 0
-246 -196 0
-246 -245 0
247 8 246 0
-247 -8 0
-247 -246 0
248 -3 59 0
-248 3 0
-248 -59 0
249 -89 222 0
-249 89 0
-249 -222 0
250 248 249 0
-250 -248 0
-250 -249 0
251 9 -250 0
-251 -9 0
-251 250 0
252 -26 -206 0
-252 26 0
-252 206 0
253 251 252 0
-253 -251 0
-253 -252 0
254 -8 253 0
-254 8 0
-254 -253 0
255 60 254 0
-255 -60 0
-255 -254 0
256 5 255 0
-256 -5 0
-256 -255 0
257 7 -256 0
-257 -7 0
-257 256 0
258 -18 -257 0
-258 18 0
-258 257 0
259 247 258 0
-259 -247 0
-259 -258 0
260 4 -10 0
-260 -4 0
-260 10 0
264 -4 206 0
-264 4 0
-264 -206 0
266 -3 6 0
-266 3 0
-266 -6 0
288 -2 -260 0
-288 2 0
-288 260 0
304 -9 -71 0
-304 9 0
-304 71 0
315 2 -4 0
-315 -2 0
-315 4 0
325 -2 -10 0
-325 2 0
-325 10 0
334 -7 19 0
-334 7 0
-334 -19 0
337 107 325 0
-337 -107 0
-337 -325 0
347 6 7 0
-347 -6 0
-347 -7 0
361 -9 -10 0
-361 9 0
-361 10 0
391 -4 6 0
-391 4 0
-391 -6 0
430 1 -232 0
-430 -1 0
-430 232 0
440 2 6 0
-440 -2 0
-440 -6 0
441 -3 440 0
-441 3 0
-441 -440 0
442 10 441 0
-442 -10 0
-442 -441 0
443 -14 442 0
-443 14 0
-443 -442 0
444 14 -442 0
-444 -14 0
-444 442 0
445 443 444 0
-445 -443 0
-445 -444 0
446 7 445 0
-446 -7 0
-446 -445 0
447 -6 -325 0
-447 6 0
-447 325 0
448 446 447 0
-448 -446 0
-448 -447 0
449 -1 448 0
-449 1 0
-449 -448 0
450 1 53 0
-450 -1 0
-450 -53 0
451 -3 -450 0
-451 3 0
-451 450 0
452 449 451 0
-452 -449 0
-452 -451 0
453 -9 452 0
-453 9 0
-453 -452 0
454 -3 -20 0
-454 3 0
-454 20 0
455 116 454 0
-455 -116 0
-455 -454 0
456 -6 455 0
-456 6 0
-456 -455 0
457 453 456 0
-457 -453 0
-457 -456 0
458 124 361 0
-458 -124 0
-458 -361 0
459 -7 458 0
-459 7 0
-459 -458 0
460 3 -10 0
-460 -3 0
-460 10 0
461 58 460 0
-461 -58 0
-461 -460 0
462 -459 -461 0
-462 459 0
-462 461 0
463 -457 462 0
-463 457 0
-463 -462 0
464 8 463 0
-464 -8 0
-464 -463 0
465 -8 10 0
-465 8 0
-465 -10 0
466 -9 465 0
-466 9 0
-466 -465 0
467 83 466 0
-467 -83 0
-467 -466 0
468 95 467 0
-468 -95 0
-468 -467 0
469 1 468 0
-469 -1 0
-469 -468 0
470 -146 -325 0
-470 146 0
-470 325 0
471 124 470 0
-471 -124 0
-471 -470 0
472 -8 471 0
-472 8 0
-472 -471 0
473 -15 472 0
-473 15 0
-473 -472 0
474 15 -472 0
-474 -15 0
-474 472 0
475 473 474 0
-475 -473 0
-475 -474 0
476 3 475 0
-476 -3 0
-476 -475 0
477 469 476 0
-477 -469 0
-477 -476 0
478 -347 477 0
-478 347 0
-478 -477 0
479 464 478 0
-479 -464 0
-479 -478 0
480 4 479 0
-480 -4 0
-480 -479 0
481 116 325 0
-481 -116 0
-481 -325 0
482 -1 481 0
-482 1 0
-482 -481 0
483 -3 -26 0
-483 3 0
-483 26 0
484 482 483 0
-484 -482 0
-484 -483 0
485 1 7 0
-485 -1 0
-485 -7 0
486 217 -337 0
-486 -217 0
-486 337 0
487 -485 -486 0
-487 485 0
-487 486 0
488 -484 487 0
-488 484 0
-488 -487 0
489 6 488 0
-489 -6 0
-489 -488 0
490 9 -222 0
-490 -9 0
-490 222 0
491 -1 -175 0
-491 1 0
-491 175 0
492 104 491 0
-492 -104 0
-492 -491 0
493 3 492 0
-493 -3 0
-493 -492 0
494 490 493 0
-494 -490 0
-494 -493 0
495 -10 494 0
-495 10 0
-495 -494 0
496 1 9 0
-496 -1 0
-496 -9 0
497 208 496 0
-497 -208 0
-497 -496 0
498 -26 -497 0
-498 26 0
-498 497 0
499 495 498 0
-499 -495 0
-499 -498 0
500 489 -499 0
-500 -489 0
-500 499 0
501 -4 500 0
-501 4 0
-501 -500 0
502 3 -6 0
-502 -3 0
-502 6 0
503 72 -502 0
-503 -72 0
-503 502 0
504 7 266 0
-504 -7 0
-504 -266 0
505 -20 504 0
-505 20 0
-505 -504 0
506 503 505 0
-506 -503 0
-506 -505 0
507 9 506 0
-507 -9 0
-507 -506 0
508 -3 124 0
-508 3 0
-508 -124 0
509 304 508 0
-509 -304 0
-509 -508 0
510 -7 509 0
-510 7 0
-510 -509 0
511 507 510 0
-511 -507 0
-511 -510 0
512 -2 511 0
-512 2 0
-512 -511 0
513 9 485 0
-513 -9 0
-513 -485 0
514 208 513 0
-514 -208 0
-514 -513 0
515 10 514 0
-515 -10 0
-515 -514 0
516 3 -515 0
-516 -3 0
-516 515 0
517 -3 -9 0
-517 3 0
-517 9 0
518 -20 -517 0
-518 20 0
-518 517 0
519 516 518 0
-519 -516 0
-519 -518 0
520 2 519 0
-520 -2 0
-520 -519 0
521 512 520 0
-521 -512 0
-521 -520 0
522 501 -521 0
-522 -501 0
-522 521 0
523 8 522 0
-523 -8 0
-523 -522 0
524 480 523 0
-524 -480 0
-524 -523 0
525 5 524 0
-525 -5 0
-525 -524 0
526 2 -5 0
-526 -2 0
-526 5 0
527 -115 -526 0
-527 115 0
-527 526 0
528 136 527 0
-528 -136 0
-528 -527 0
529 8 528 0
-529 -8 0
-529 -528 0
530 525 529 0
-530 -525 0
-530 -529 0
557 1 -148 0
-557 -1 0
-557 148 0
572 -6 10 0
-572 6 0
-572 -10 0
579 -4 -6 0
-579 4 0
-579 6 0
614 -5 8 0
-614 5 0
-614 -8 0
618 -232 -572 0
-618 232 0
-618 572 0
619 288 618 0
-619 -288 0
-619 -618 0
620 1 619 0
-620 -1 0
-620 -619 0
621 2 -6 0
-621 -2 0
-621 6 0
622 18 621 0
-622 -18 0
-622 -621 0
623 107 260 0
-623 -107 0
-623 -260 0
624 622 -623 0
-624 -622 0
-624 623 0
625 3 -624 0
-625 -3 0
-625 624 0
626 -337 440 0
-626 337 0
-626 -440 0
627 -102 626 0
-627 102 0
-627 -626 0
628 625 627 0
-628 -625 0
-628 -627 0
629 620 -628 0
-629 -620 0
-629 628 0
630 9 629 0
-630 -9 0
-630 -629 0
631 97 622 0
-631 -97 0
-631 -622 0
632 3 -631 0
-632 -3 0
-632 631 0
633 -141 -208 0
-633 141 0
-633 208 0
634 632 633 0
-634 -632 0
-634 -633 0
635 -9 634 0
-635 9 0
-635 -634 0
636 6 220 0
-636 -6 0
-636 -220 0
637 579 636 0
-637 -579 0
-637 -636 0
638 -33 -637 0
-638 33 0
-638 637 0
639 635 638 0
-639 -635 0
-639 -638 0
640 10 639 0
-640 -10 0
-640 -639 0
641 266 579 0
-641 -266 0
-641 -579 0
642 264 641 0
-642 -264 0
-642 -641 0
643 -2 -642 0
-643 2 0
-643 642 0
644 178 -315 0
-644 -178 0
-644 315 0
645 -16 644 0
-645 16 0
-645 -644 0
646 16 -644 0
-646 -16 0
-646 644 0
647 645 646 0
-647 -645 0
-647 -646 0
648 -206 647 0
-648 206 0
-648 -647 0
649 643 648 0
-649 -643 0
-649 -648 0
650 -10 649 0
-650 10 0
-650 -649 0
651 640 650 0
-651 -640 0
-651 -650 0
652 630 -651 0
-652 -630 0
-652 651 0
653 7 652 0
-653 -7 0
-653 -652 0
654 2 124 0
-654 -2 0
-654 -124 0
655 -3 654 0
-655 3 0
-655 -654 0
656 334 655 0
-656 -334 0
-656 -655 0
657 -1 656 0
-657 1 0
-657 -656 0
658 7 104 0
-658 -7 0
-658 -104 0
659 -3 658 0
-659 3 0
-659 -658 0
660 -9 26 0
-660 9 0
-660 -26 0
661 -334 660 0
-661 334 0
-661 -660 0
662 659 661 0
-662 -659 0
-662 -661 0
663 657 -662 0
-663 -657 0
-663 662 0
664 -391 663 0
-664 391 0
-664 -663 0
665 653 664 0
-665 -653 0
-665 -664 0
666 8 665 0
-666 -8 0
-666 -665 0
667 148 517 0
-667 -148 0
-667 -517 0
668 1 667 0
-668 -1 0
-668 -667 0
669 207 668 0
-669 -207 0
-669 -668 0
670 10 669 0
-670 -10 0
-670 -669 0
671 -94 -496 0
-671 94 0
-671 496 0
672 670 671 0
-672 -670 0
-672 -671 0
673 2 672 0
-673 -2 0
-673 -672 0
674 -325 -557 0
-674 325 0
-674 557 0
675 673 674 0
-675 -673 0
-675 -674 0
676 -18 675 0
-676 18 0
-676 -675 0
677 7 -676 0
-677 -7 0
-677 676 0
678 666 677 0
-678 -666 0
-678 -677 0
679 5 678 0
-679 -5 0
-679 -678 0
680 -18 -614 0
-680 18 0
-680 614 0
681 -430 -680 0
-681 430 0
-681 680 0
682 679 681 0
-682 -679 0
-682 -681 0
729 -24 -80 0
-729 24 0
-729 80 0
730 79 729 0
-730 -79 0
-730 -729 0
731 6 730 0
-731 -6 0
-731 -730 0
732 77 731 0
-732 -77 0
-732 -731 0
733 -4 732 0
-733 4 0
-733 -732 0
734 -119 733 0
-734 119 0
-734 -733 0
735 8 734 0
-735 -8 0
-735 -734 0
736 65 735 0
-736 -65 0
-736 -735 0
737 5 736 0
-737 -5 0
-737 -736 0
738 -6 128 0
-738 6 0
-738 -128 0
739 138 738 0
-739 -138 0
-739 -738 0
740 8 739 0
-740 -8 0
-740 -739 0
741 -142 -740 0
-741 142 0
-741 740 0
742 1 -741 0
-742 -1 0
-742 741 0
743 737 742 0
-743 -737 0
-743 -742 0
744 151 160 0
-744 -151 0
-744 -160 0
745 5 744 0
-745 -5 0
-745 -744 0
746 172 745 0
-746 -172 0
-746 -745 0
747 2 746 0
-747 -2 0
-747 -746 0
748 194 747 0
-748 -194 0
-748 -747 0
749 4 748 0
-749 -4 0
-749 -748 0
750 245 749 0
-750 -245 0
-750 -749 0
751 8 750 0
-751 -8 0
-751 -750 0
752 258 751 0
-752 -258 0
-752 -751 0
753 7 -442 0
-753 -7 0
-753 442 0
754 447 753 0
-754 -447 0
-754 -753 0
755 -1 754 0
-755 1 0
-755 -754 0
756 451 755 0
-756 -451 0
-756 -755 0
757 -9 756 0
-757 9 0
-757 -756 0
758 456 757 0
-758 -456 0
-758 -757 0
759 462 -758 0
-759 -462 0
-759 758 0
760 8 759 0
-760 -8 0
-760 -759 0
761 -80 466 0
-761 80 0
-761 -466 0
762 95 761 0
-762 -95 0
-762 -761 0
763 1 762 0
-763 -1 0
-763 -762 0
764 3 -472 0
-764 -3 0
-764 472 0
765 763 764 0
-765 -763 0
-765 -764 0
766 -347 765 0
-766 347 0
-766 -765 0
767 760 766 0
-767 -760 0
-767 -766 0
768 4 767 0
-768 -4 0
-768 -767 0
769 523 768 0
-769 -523 0
-769 -768 0
770 5 769 0
-770 -5 0
-770 -769 0
771 529 770 0
-771 -529 0
-771 -770 0
772 -206 -644 0
-772 206 0
-772 644 0
773 643 772 0
-773 -643 0
-773 -772 0
774 -10 773 0
-774 10 0
-774 -773 0
775 640 774 0
-775 -640 0
-775 -774 0
776 630 -775 0
-776 -630 0
-776 775 0
777 7 776 0
-777 -7 0
-777 -776 0
778 664 777 0
-778 -664 0
-778 -777 0
779 8 778 0
-779 -8 0
-779 -778 0
780 677 779 0
-780 -677 0
-780 -779 0
781 5 780 0
-781 -5 0
-781 -780 0
782 681 781 0
-782 -681 0
-782 -781 0
783 -145 743 0
-783 145 0
-783 -743 0
784 145 -743 0
-784 -145 0
-784 743 0
785 783 784 0
-785 -783 0
-785 -784 0
786 -259 752 0
-786 259 0
-786 -752 0
787 259 -752 0
-787 -259 0
-787 752 0
788 786 787 0
-788 -786 0
-788 -787 0
789 530 -771 0
-789 -530 0
-789 771 0
790 -530 771 0
-790 530 0
-790 -771 0
791 789 790 0
-791 -789 0
-791 -790 0
792 682 -782 0
-792 -682 0
-792 782 0
793 -682 782 0
-793 682 0
-793 -782 0
794 792 793 0
-794 -792 0
-794 -793 0
795 -785 -788 0
-795 785 0
-795 788 0
796 -791 -794 0
-796 791 0
-796 794 0
797 -795 -796 0
-797 795 0
-797 796 0
17 797 0
-17 -797 0
17 0
w 1 0.500000
w 2 0.500000
w 3 0.500000
w 4 0.500000
w 5 0.500000
w 6 0.500000
w 7 0.500000
w 8 0.500000
w 9 0.500000
w 10 0.500000
w 11 0.125000
w 12 0.125000
w 13 0.125000
w 14 0.125000
w 15 0.125000
w 16 0.125000
w 18 -1
w 19 -1
w 20 -1
w 21 -1
w 22 -1
w 23 -1
w 24 -1
w 25 -1
w 26 -1
w 27 -1
w 28 -1
w 29 -1
w 30 -1
w 31 -1
w 32 -1
w 33 -1
w 34 -1
w 35 -1
w 36 -1
w 37 -1
w 38 -1
w 39 -1
w 40 -1
w 41 -1
w 42 -1
w 43 -1
w 44 -1
w 45 -1
w 46 -1
w 47 -1
w 48 -1
w 49 -1
w 50 -1
w 51 -1
w 52 -1
w 53 -1
w 54 -1
w 55 -1
w 56 -1
w 57 -1
w 58 -1
w 59 -1
w 60 -1
w 61 -1
w 62 -1
w 63 -1
w 64 -1
w 65 -1
w 66 -1
w 67 -1
w 68 -1
w 69 -1
w 70 -1
w 71 -1
w 72 -1
w 73 -1
w 74 -1
w 75 -1
w 76 -1
w 77 -1
w 78 -1
w 79 -1
w 80 -1
w 81 -1
w 82 -1
w 83 -1
w 84 -1
w 85 -1
w 86 -1
w 87 -1
w 88 -1
w 89 -1
w 90 -1
w 91 -1
w 92 -1
w 93 -1
w 94 -1
w 95 -1
w 96 -1
w 97 -1
w 98 -1
w 99 -1
w 100 -1
w 101 -1
w 102 -1
w 103 -1
w 104 -1
w 105 -1
w 106 -1
w 107 -1
w 108 -1
w 109 -1
w 110 -1
w 111 -1
w 112 -1
w 113 -1
w 114 -1
w 115 -1
w 116 -1
w 117 -1
w 118 -1
w 119 -1
w 120 -1
w 121 -1
w 122 -1
w 123 -1
w 124 -1
w 125 -1
w 126 -1
w 127 -1
w 128 -1
w 129 -1
w 130 -1
w 131 -1
w 132 -1
w 133 -1
w 134 -1
w 135 -1
w 136 -1
w 137 -1
w 138 -1
w 139 -1
w 140 -1
w 141 -1
w 142 -1
w 143 -1
w 144 -1
w 145 -1
w 146 -1
w 147 -1
w 148 -1
w 149 -1
w 150 -1
w 151 -1
w 152 -1
w 153 -1
w 154 -1
w 155 -1
w 156 -1
w 157 -1
w 158 -1
w 159 -1
w 160 -1
w 161 -1
w 162 -1
w 163 -1
w 164 -1
w 165 -1
w 166 -1
w 167 -1
w 168 -1
w 169 -1
w 170 -1
w 171 -1
w 172 -1
w 173 -1
w 174 -1
w 175 -1
w 176 -1
w 177 -1
w 178 -1
w 179 -1
w 180 -1
w 181 -1
w 182 -1
w 183 -1
w 184 -1
w 185 -1
w 186 -1
w 187 -1
w 188 -1
w 189 -1
w 190 -1
w 191 -1
w 192 -1
w 193 -1
w 194 -1
w 195 -1
w 196 -1
w 197 -1
w 198 -1
w 199 -1
w 200 -1
w 201 -1
w 202 -1
w 203 -1
w 204 -1
w 205 -1
w 206 -1
w 207 -1
w 208 -1
w 209 -1
w 210 -1
w 211 -1
w 212 -1
w 213 -1
w 214 -1
w 215 -1
w 216 -1
w 217 -1
w 218 -1
w 219 -1
w 220 -1
w 221 -1
w 222 -1
w 223 -1
w 224 -1
w 225 -1
w 226 -1
w 227 -1
w 228 -1
w 229 -1
w 230 -1
w 231 -1
w 232 -1
w 233 -1
w 234 -1
w 235 -1
w 236 -1
w 237 -1
w 238 -1
w 239 -1
w 240 -1
w 241 -1
w 242 -1
w 243 -1
w 244 -1
w 245 -1
w 246 -1
w 247 -1
w 248 -1
w 249 -1
w 250 -1
w 251 -1
w 252 -1
w 253 -1
w 254 -1
w 255 -1
w 256 -1
w 257 -1
w 258 -1
w 259 -1
w 260 -1
w 264 -1
w 266 -1
w 288 -1
w 304 -1
w 315 -1
w 325 -1
w 334 -1
w 337 -1
w 347 -1
w 361 -1
w 391 -1
w 430 -1
w 440 -1
w 441 -1
w 442 -1
w 443 -1
w 444 -1
w 445 -1
w 446 -1
w 447 -1
w 448 -1
w 449 -1
w 450 -1
w 451 -1
w 452 -1
w 453 -1
w 454 -1
w 455 -1
w 456 -1
w 457 -1
w 458 -1
w 459 -1
w 460 -1
w 461 -1
w 462 -1
w 463 -1
w 464 -1
w 465 -1
w 466 -1
w 467 -1
w 468 -1
w 469 -1
w 470 -1
w 471 -1
w 472 -1
w 473 -1
w 474 -1
w 475 -1
w 476 -1
w 477 -1
w 478 -1
w 479 -1
w 480 -1
w 481 -1
w 482 -1
w 483 -1
w 484 -1
w 485 -1
w 486 -1
w 487 -1
w 488 -1
w 489 -1
w 490 -1
w 491 -1
w 492 -1
w 493 -1
w 494 -1
w 495 -1
w 496 -1
w 497 -1
w 498 -1
w 499 -1
w 500 -1
w 501 -1
w 502 -1
w 503 -1
w 504 -1
w 505 -1
w 506 -1
w 507 -1
w 508 -1
w 509 -1
w 510 -1
w 511 -1
w 512 -1
w 513 -1
w 514 -1
w 515 -1
w 516 -1
w 517 -1
w 518 -1
w 519 -1
w 520 -1
w 521 -1
w 522 -1
w 523 -1
w 524 -1
w 525 -1
w 526 -1
w 527 -1
w 528 -1
w 529 -1
w 530 -1
w 557 -1
w 572 -1
w 579 -1
w 614 -1
w 618 -1
w 619 -1
w 620 -1
w 621 -1
w 622 -1
w 623 -1
w 624 -1
w 625 -1
w 626 -1
w 627 -1
w 628 -1
w 629 -1
w 630 -1
w 631 -1
w 632 -1
w 633 -1
w 634 -1
w 635 -1
w 636 -1
w 637 -1
w 638 -1
w 639 -1
w 640 -1
w 641 -1
w 642 -1
w 643 -1
w 644 -1
w 645 -1
w 646 -1
w 647 -1
w 648 -1
w 649 -1
w 650 -1
w 651 -1
w 652 -1
w 653 -1
w 654 -1
w 655 -1
w 656 -1
w 657 -1
w 658 -1
w 659 -1
w 660 -1
w 661 -1
w 662 -1
w 663 -1
w 664 -1
w 665 -1
w 666 -1
w 667 -1
w 668 -1
w 669 -1
w 670 -1
w 671 -1
w 672 -1
w 673 -1
w 674 -1
w 675 -1
w 676 -1
w 677 -1
w 678 -1
w 679 -1
w 680 -1
w 681 -1
w 682 -1
w 729 -1
w 730 -1
w 731 -1
w 732 -1
w 733 -1
w 734 -1
w 735 -1
w 736 -1
w 737 -1
w 738 -1
w 739 -1
w 740 -1
w 741 -1
w 742 -1
w 743 -1
w 744 -1
w 745 -1
w 746 -1
w 747 -1
w 748 -1
w 749 -1
w 750 -1
w 751 -1
w 752 -1
w 753 -1
w 754 -1
w 755 -1
w 756 -1
w 757 -1
w 758 -1
w 759 -1
w 760 -1
w 761 -1
w 762 -1
w 763 -1
w 764 -1
w 765 -1
w 766 -1
w 767 -1
w 768 -1
w 769 -1
w 770 -1
w 771 -1
w 772 -1
w 773 -1
w 774 -1
w 775 -1
w 776 -1
w 777 -1
w 778 -1
w 779 -1
w 780 -1
w 781 -1
w 782 -1
w 783 -1
w 784 -1
w 785 -1
w 786 -1
w 787 -1
w 788 -1
w 789 -1
w 790 -1
w 791 -1
w 792 -1
w 793 -1
w 794 -1
w 795 -1
w 796 -1
w 797 -1
w 17 -1
